# Solution for model acceleration_srl_ilp
# Objective value = 6.1316408535007092e+00
Z_569_0_0 0
Z_569_0_1 0
Z_569_0_2 1
Z_569_0_3 0
Z_325_0_0 0
Z_325_0_1 1
Z_325_0_2 0
Z_325_0_3 0
Z_65_0_0 0
Z_65_0_1 1
Z_65_0_2 0
Z_65_0_3 0
Z_387_0_0 0
Z_387_0_1 1
Z_387_0_2 0
Z_387_0_3 0
Z_450_0_0 0
Z_450_0_1 0
Z_450_0_2 1
Z_450_0_3 0
Z_406_0_0 0
Z_406_0_1 0
Z_406_0_2 1
Z_406_0_3 0
Z_499_0_0 0
Z_499_0_1 0
Z_499_0_2 1
Z_499_0_3 0
Z_441_0_0 0
Z_441_0_1 1
Z_441_0_2 0
Z_441_0_3 0
Z_300_0_0 1
Z_300_0_1 0
Z_300_0_2 0
Z_300_0_3 0
Z_276_0_0 0
Z_276_0_1 1
Z_276_0_2 0
Z_276_0_3 0
Z_335_0_0 0
Z_335_0_1 1
Z_335_0_2 0
Z_335_0_3 0
Z_566_8_0 0
Z_566_8_1 0
Z_566_8_2 0
Z_566_8_3 0
Z_566_1_0 0
Z_566_1_1 0
Z_566_1_2 0
Z_566_1_3 0
Z_566_5_0 0
Z_566_5_1 0
Z_566_5_2 0
Z_566_5_3 0
Z_566_2_0 0
Z_566_2_1 0
Z_566_2_2 0
Z_566_2_3 0
Z_566_7_0 1
Z_566_7_1 0
Z_566_7_2 0
Z_566_7_3 0
Z_566_4_0 0
Z_566_4_1 0
Z_566_4_2 0
Z_566_4_3 0
Z_566_6_0 0
Z_566_6_1 0
Z_566_6_2 0
Z_566_6_3 1
Z_566_3_0 0
Z_566_3_1 0
Z_566_3_2 1
Z_566_3_3 0
Z_566_0_0 0
Z_566_0_1 1
Z_566_0_2 0
Z_566_0_3 0
